Route #1: 1 49 55 11 6 37 45 50 3 47 1
Route #2: 1 42 17 21 19 34 53 39 60 20 1
Route #3: 1 26 5 22 12 4 41 32 7 1
Route #4: 1 27 30 8 14 9 1
Route #5: 1 44 57 13 52 10 33 38 28 1
Route #6: 1 54 31 2 29 25 59 51 1
Route #7: 1 24 48 35 40 16 36 56 15 1
Route #8: 1 46 43 23 1
Route #9: 1 58 18 1
cost 1656.8059523309262